&CONTROL
! .control.settings
calculation               = 'nscf',
restart_mode              = 'from_scratch',
prefix                    = 'scf',
pseudo_dir                = '/shared/ESPRESSO/PSLIBRARY/1.0.0/pbe/PSEUDOPOTENTIALS/',

! .control.io
verbosity                 = 'low',
disk_io                   = 'low',
wf_collect                = .true.,
outdir                    = './tmp/',
/

&SYSTEM
! .system.structure
a                         = 1.0,
ibrav                     = 0,
nat                       = 2,
ntyp                      = 1,
nbnd                      = 16,
! .system.ecut
ecutwfc                   = 30,
ecutrho                   = 120,

! .system.occupations
occupations               = 'smearing',
degauss                   = 0.007,
lda_plus_u                = .true.,
U_projection_type         = 'atomic',
smearing                  = 'gaussian',
Hubbard_U(1)              = 1.6,
/

&ELECTRONS
! .electrons
diagonalization           = 'david',
mixing_mode               = 'plain',
electron_maxstep          = 100,
mixing_beta               = 0.7,
conv_thr                  = 1e-06,
/

! .atomic_species
ATOMIC_SPECIES
   Ge  72.6300 Ge.pbe-n-kjpaw_psl.1.0.0.UPF

ATOMIC_POSITIONS  crystal 
 Ge     0.00000000000000     0.00000000000000     0.00000000000000   1   1   1
 Ge     0.25000000000000     0.25000000000000     0.25000000000000   1   1   1
CELL_PARAMETERS alat
    0.00000000000000     2.81828741500000     2.81828741500000
    2.81828741500000     0.00000000000000     2.81828741500000
    2.81828741500000     2.81828741500000     0.00000000000000

! .kpoints
K_POINTS crystal   ! .kpoints.type  
51
 0.000000000000  0.000000000000 -0.500000000000     1.000000
 0.000000000000  0.000000000000 -0.476190476190     1.000000
 0.000000000000  0.000000000000 -0.452380952381     1.000000
 0.000000000000  0.000000000000 -0.428571428571     1.000000
 0.000000000000  0.000000000000 -0.404761904762     1.000000
 0.000000000000  0.000000000000 -0.380952380952     1.000000
 0.000000000000  0.000000000000 -0.357142857143     1.000000
 0.000000000000  0.000000000000 -0.333333333333     1.000000
 0.000000000000  0.000000000000 -0.309523809524     1.000000
 0.000000000000  0.000000000000 -0.285714285714     1.000000
 0.000000000000  0.000000000000 -0.261904761905     1.000000
 0.000000000000  0.000000000000 -0.238095238095     1.000000
 0.000000000000  0.000000000000 -0.214285714286     1.000000
 0.000000000000  0.000000000000 -0.190476190476     1.000000
 0.000000000000  0.000000000000 -0.166666666667     1.000000
 0.000000000000  0.000000000000 -0.142857142857     1.000000
 0.000000000000  0.000000000000 -0.119047619048     1.000000
 0.000000000000  0.000000000000 -0.095238095238     1.000000
 0.000000000000  0.000000000000 -0.071428571429     1.000000
 0.000000000000  0.000000000000 -0.047619047619     1.000000
 0.000000000000  0.000000000000 -0.023809523810     1.000000
 0.000000000000  0.000000000000  0.000000000000     1.000000
 0.017241379310  0.017241379310  0.000000000000     1.000000
 0.034482758621  0.034482758621  0.000000000000     1.000000
 0.051724137931  0.051724137931  0.000000000000     1.000000
 0.068965517241  0.068965517241  0.000000000000     1.000000
 0.086206896552  0.086206896552  0.000000000000     1.000000
 0.103448275862  0.103448275862  0.000000000000     1.000000
 0.120689655172  0.120689655172  0.000000000000     1.000000
 0.137931034483  0.137931034483  0.000000000000     1.000000
 0.155172413793  0.155172413793  0.000000000000     1.000000
 0.172413793103  0.172413793103  0.000000000000     1.000000
 0.189655172414  0.189655172414  0.000000000000     1.000000
 0.206896551724  0.206896551724  0.000000000000     1.000000
 0.224137931034  0.224137931034  0.000000000000     1.000000
 0.241379310345  0.241379310345  0.000000000000     1.000000
 0.258620689655  0.258620689655  0.000000000000     1.000000
 0.275862068966  0.275862068966  0.000000000000     1.000000
 0.293103448276  0.293103448276  0.000000000000     1.000000
 0.310344827586  0.310344827586  0.000000000000     1.000000
 0.327586206897  0.327586206897  0.000000000000     1.000000
 0.344827586207  0.344827586207  0.000000000000     1.000000
 0.362068965517  0.362068965517  0.000000000000     1.000000
 0.379310344828  0.379310344828  0.000000000000     1.000000
 0.396551724138  0.396551724138  0.000000000000     1.000000
 0.413793103448  0.413793103448  0.000000000000     1.000000
 0.431034482759  0.431034482759  0.000000000000     1.000000
 0.448275862069  0.448275862069  0.000000000000     1.000000
 0.465517241379  0.465517241379  0.000000000000     1.000000
 0.482758620690  0.482758620690  0.000000000000     1.000000
 0.500000000000  0.500000000000  0.000000000000     1.000000
