Au 
 1.0000000000000000
    20.1949696706878008    0.0000000000000000    0.0000000000000000
    25.9649610051700321   14.9908772258330494    0.0000000000000000
     0.0000000000000000    0.0000000000000000   24.4223563931746952
  Au
 210
Direct
  0.0000000000000001  0.1111111111111110  0.3070956741134129
  0.1428571428571429  0.1111111111111110  0.3070956741134129
  0.9999999999999994  0.2777777777777778  0.3070956741134129
  0.2857142857142858  0.1111111111111110  0.3070956741134129
  0.1428571428571423  0.2777777777777778  0.3070956741134129
  0.9999999999999997  0.4444444444444446  0.3070956741134129
  0.4285714285714286  0.1111111111111110  0.3070956741134129
  0.2857142857142851  0.2777777777777778  0.3070956741134129
  0.1428571428571425  0.4444444444444446  0.3070956741134129
  0.9999999999999991  0.6111111111111114  0.3070956741134129
  0.5714285714285714  0.1111111111111110  0.3070956741134129
  0.4285714285714280  0.2777777777777778  0.3070956741134129
  0.2857142857142853  0.4444444444444446  0.3070956741134129
  0.1428571428571420  0.6111111111111114  0.3070956741134129
  0.9999999999999991  0.7777777777777782  0.3070956741134129
  0.7142857142857143  0.1111111111111110  0.3070956741134129
  0.5714285714285708  0.2777777777777778  0.3070956741134129
  0.4285714285714282  0.4444444444444446  0.3070956741134129
  0.2857142857142848  0.6111111111111114  0.3070956741134129
  0.1428571428571420  0.7777777777777782  0.3070956741134129
  0.9999999999999991  0.9444444444444445  0.3070956741134129
  0.8571428571428570  0.1111111111111110  0.3070956741134129
  0.7142857142857136  0.2777777777777778  0.3070956741134129
  0.5714285714285710  0.4444444444444446  0.3070956741134129
  0.4285714285714277  0.6111111111111114  0.3070956741134129
  0.2857142857142848  0.7777777777777782  0.3070956741134129
  0.1428571428571420  0.9444444444444445  0.3070956741134129
  0.8571428571428565  0.2777777777777778  0.3070956741134129
  0.7142857142857139  0.4444444444444446  0.3070956741134129
  0.5714285714285705  0.6111111111111114  0.3070956741134129
  0.4285714285714277  0.7777777777777782  0.3070956741134129
  0.2857142857142848  0.9444444444444445  0.3070956741134129
  0.8571428571428567  0.4444444444444446  0.3070956741134129
  0.7142857142857140  0.6111111111111114  0.3070956741134129
  0.5714285714285705  0.7777777777777782  0.3070956741134129
  0.4285714285714283  0.9444444444444445  0.3070956741134129
  0.8571428571428569  0.6111111111111114  0.3070956741134129
  0.7142857142857133  0.7777777777777782  0.3070956741134129
  0.5714285714285712  0.9444444444444445  0.3070956741134129
  0.8571428571428562  0.7777777777777782  0.3070956741134129
  0.7142857142857140  0.9444444444444445  0.3070956741134129
  0.8571428571428569  0.9444444444444445  0.3070956741134129
  0.0000000000000000  0.0000000000000000  0.4035478370567064
  0.1428571428571428  0.0000000000000000  0.4035478370567064
  0.9999999999999994  0.1666666666666668  0.4035478370567064
  0.2857142857142857  0.0000000000000000  0.4035478370567064
  0.1428571428571423  0.1666666666666668  0.4035478370567064
  0.9999999999999996  0.3333333333333336  0.4035478370567064
  0.4285714285714285  0.0000000000000000  0.4035478370567064
  0.2857142857142851  0.1666666666666668  0.4035478370567064
  0.1428571428571424  0.3333333333333336  0.4035478370567064
  0.9999999999999990  0.5000000000000003  0.4035478370567064
  0.5714285714285714  0.0000000000000000  0.4035478370567064
  0.4285714285714280  0.1666666666666668  0.4035478370567064
  0.2857142857142853  0.3333333333333336  0.4035478370567064
  0.1428571428571419  0.5000000000000003  0.4035478370567064
  0.9999999999999991  0.6666666666666672  0.4035478370567064
  0.7142857142857142  0.0000000000000000  0.4035478370567064
  0.5714285714285708  0.1666666666666668  0.4035478370567064
  0.4285714285714281  0.3333333333333336  0.4035478370567064
  0.2857142857142847  0.5000000000000003  0.4035478370567064
  0.1428571428571420  0.6666666666666672  0.4035478370567064
  0.9999999999999991  0.8333333333333335  0.4035478370567064
  0.8571428571428570  0.0000000000000000  0.4035478370567064
  0.7142857142857136  0.1666666666666668  0.4035478370567064
  0.5714285714285710  0.3333333333333336  0.4035478370567064
  0.4285714285714275  0.5000000000000003  0.4035478370567064
  0.2857142857142848  0.6666666666666672  0.4035478370567064
  0.1428571428571420  0.8333333333333335  0.4035478370567064
  0.8571428571428565  0.1666666666666668  0.4035478370567064
  0.7142857142857137  0.3333333333333336  0.4035478370567064
  0.5714285714285704  0.5000000000000003  0.4035478370567064
  0.4285714285714277  0.6666666666666672  0.4035478370567064
  0.2857142857142848  0.8333333333333335  0.4035478370567064
  0.8571428571428567  0.3333333333333336  0.4035478370567064
  0.7142857142857132  0.5000000000000003  0.4035478370567064
  0.5714285714285705  0.6666666666666672  0.4035478370567064
  0.4285714285714277  0.8333333333333335  0.4035478370567064
  0.8571428571428567  0.5000000000000003  0.4035478370567064
  0.7142857142857133  0.6666666666666672  0.4035478370567064
  0.5714285714285712  0.8333333333333335  0.4035478370567064
  0.8571428571428562  0.6666666666666672  0.4035478370567064
  0.7142857142857140  0.8333333333333335  0.4035478370567064
  0.8571428571428569  0.8333333333333335  0.4035478370567064
  0.9999999999999998  0.0555555555555558  0.5000000000000000
  0.1428571428571429  0.0555555555555558  0.5000000000000000
  0.9999999999999996  0.2222222222222225  0.5000000000000000
  0.2857142857142858  0.0555555555555558  0.5000000000000000
  0.1428571428571423  0.2222222222222225  0.5000000000000000
  0.9999999999999997  0.3888888888888893  0.5000000000000000
  0.4285714285714286  0.0555555555555558  0.5000000000000000
  0.2857142857142852  0.2222222222222225  0.5000000000000000
  0.1428571428571425  0.3888888888888893  0.5000000000000000
  0.9999999999999990  0.5555555555555561  0.5000000000000000
  0.5714285714285714  0.0555555555555558  0.5000000000000000
  0.4285714285714280  0.2222222222222225  0.5000000000000000
  0.2857142857142853  0.3888888888888893  0.5000000000000000
  0.1428571428571419  0.5555555555555561  0.5000000000000000
  0.9999999999999993  0.7222222222222229  0.5000000000000000
  0.7142857142857143  0.0555555555555558  0.5000000000000000
  0.5714285714285708  0.2222222222222225  0.5000000000000000
  0.4285714285714282  0.3888888888888893  0.5000000000000000
  0.2857142857142847  0.5555555555555561  0.5000000000000000
  0.1428571428571421  0.7222222222222229  0.5000000000000000
  0.9999999999999993  0.8888888888888892  0.5000000000000000
  0.8571428571428570  0.0555555555555558  0.5000000000000000
  0.7142857142857136  0.2222222222222225  0.5000000000000000
  0.5714285714285710  0.3888888888888893  0.5000000000000000
  0.4285714285714275  0.5555555555555561  0.5000000000000000
  0.2857142857142850  0.7222222222222229  0.5000000000000000
  0.1428571428571421  0.8888888888888892  0.5000000000000000
  0.8571428571428565  0.2222222222222225  0.5000000000000000
  0.7142857142857139  0.3888888888888893  0.5000000000000000
  0.5714285714285704  0.5555555555555561  0.5000000000000000
  0.4285714285714278  0.7222222222222229  0.5000000000000000
  0.2857142857142850  0.8888888888888892  0.5000000000000000
  0.8571428571428567  0.3888888888888893  0.5000000000000000
  0.7142857142857132  0.5555555555555561  0.5000000000000000
  0.5714285714285706  0.7222222222222229  0.5000000000000000
  0.4285714285714278  0.8888888888888892  0.5000000000000000
  0.8571428571428567  0.5555555555555561  0.5000000000000000
  0.7142857142857135  0.7222222222222229  0.5000000000000000
  0.5714285714285714  0.8888888888888892  0.5000000000000000
  0.8571428571428563  0.7222222222222229  0.5000000000000000
  0.7142857142857142  0.8888888888888892  0.5000000000000000
  0.8571428571428570  0.8888888888888892  0.5000000000000000
  0.0000000000000001  0.1111111111111110  0.5964521629432936
  0.1428571428571429  0.1111111111111110  0.5964521629432936
  0.9999999999999994  0.2777777777777778  0.5964521629432936
  0.2857142857142858  0.1111111111111110  0.5964521629432936
  0.1428571428571423  0.2777777777777778  0.5964521629432936
  0.9999999999999997  0.4444444444444446  0.5964521629432936
  0.4285714285714286  0.1111111111111110  0.5964521629432936
  0.2857142857142851  0.2777777777777778  0.5964521629432936
  0.1428571428571425  0.4444444444444446  0.5964521629432936
  0.9999999999999991  0.6111111111111114  0.5964521629432936
  0.5714285714285714  0.1111111111111110  0.5964521629432936
  0.4285714285714280  0.2777777777777778  0.5964521629432936
  0.2857142857142853  0.4444444444444446  0.5964521629432936
  0.1428571428571420  0.6111111111111114  0.5964521629432936
  0.9999999999999991  0.7777777777777782  0.5964521629432936
  0.7142857142857143  0.1111111111111110  0.5964521629432936
  0.5714285714285708  0.2777777777777778  0.5964521629432936
  0.4285714285714282  0.4444444444444446  0.5964521629432936
  0.2857142857142848  0.6111111111111114  0.5964521629432936
  0.1428571428571420  0.7777777777777782  0.5964521629432936
  0.9999999999999991  0.9444444444444445  0.5964521629432936
  0.8571428571428570  0.1111111111111110  0.5964521629432936
  0.7142857142857136  0.2777777777777778  0.5964521629432936
  0.5714285714285710  0.4444444444444446  0.5964521629432936
  0.4285714285714277  0.6111111111111114  0.5964521629432936
  0.2857142857142848  0.7777777777777782  0.5964521629432936
  0.1428571428571420  0.9444444444444445  0.5964521629432936
  0.8571428571428565  0.2777777777777778  0.5964521629432936
  0.7142857142857139  0.4444444444444446  0.5964521629432936
  0.5714285714285705  0.6111111111111114  0.5964521629432936
  0.4285714285714277  0.7777777777777782  0.5964521629432936
  0.2857142857142848  0.9444444444444445  0.5964521629432936
  0.8571428571428567  0.4444444444444446  0.5964521629432936
  0.7142857142857140  0.6111111111111114  0.5964521629432936
  0.5714285714285705  0.7777777777777782  0.5964521629432936
  0.4285714285714283  0.9444444444444445  0.5964521629432936
  0.8571428571428569  0.6111111111111114  0.5964521629432936
  0.7142857142857133  0.7777777777777782  0.5964521629432936
  0.5714285714285712  0.9444444444444445  0.5964521629432936
  0.8571428571428562  0.7777777777777782  0.5964521629432936
  0.7142857142857140  0.9444444444444445  0.5964521629432936
  0.8571428571428569  0.9444444444444445  0.5964521629432936
  0.0000000000000000  0.0000000000000000  0.6929043258865872
  0.1428571428571428  0.0000000000000000  0.6929043258865872
  0.9999999999999994  0.1666666666666668  0.6929043258865872
  0.2857142857142857  0.0000000000000000  0.6929043258865872
  0.1428571428571423  0.1666666666666668  0.6929043258865872
  0.9999999999999996  0.3333333333333336  0.6929043258865872
  0.4285714285714285  0.0000000000000000  0.6929043258865872
  0.2857142857142851  0.1666666666666668  0.6929043258865872
  0.1428571428571424  0.3333333333333336  0.6929043258865872
  0.9999999999999990  0.5000000000000003  0.6929043258865872
  0.5714285714285714  0.0000000000000000  0.6929043258865872
  0.4285714285714280  0.1666666666666668  0.6929043258865872
  0.2857142857142853  0.3333333333333336  0.6929043258865872
  0.1428571428571419  0.5000000000000003  0.6929043258865872
  0.9999999999999991  0.6666666666666672  0.6929043258865872
  0.7142857142857142  0.0000000000000000  0.6929043258865872
  0.5714285714285708  0.1666666666666668  0.6929043258865872
  0.4285714285714281  0.3333333333333336  0.6929043258865872
  0.2857142857142847  0.5000000000000003  0.6929043258865872
  0.1428571428571420  0.6666666666666672  0.6929043258865872
  0.9999999999999991  0.8333333333333335  0.6929043258865872
  0.8571428571428570  0.0000000000000000  0.6929043258865872
  0.7142857142857136  0.1666666666666668  0.6929043258865872
  0.5714285714285710  0.3333333333333336  0.6929043258865872
  0.4285714285714275  0.5000000000000003  0.6929043258865872
  0.2857142857142848  0.6666666666666672  0.6929043258865872
  0.1428571428571420  0.8333333333333335  0.6929043258865872
  0.8571428571428565  0.1666666666666668  0.6929043258865872
  0.7142857142857137  0.3333333333333336  0.6929043258865872
  0.5714285714285704  0.5000000000000003  0.6929043258865872
  0.4285714285714277  0.6666666666666672  0.6929043258865872
  0.2857142857142848  0.8333333333333335  0.6929043258865872
  0.8571428571428567  0.3333333333333336  0.6929043258865872
  0.7142857142857132  0.5000000000000003  0.6929043258865872
  0.5714285714285705  0.6666666666666672  0.6929043258865872
  0.4285714285714277  0.8333333333333335  0.6929043258865872
  0.8571428571428567  0.5000000000000003  0.6929043258865872
  0.7142857142857133  0.6666666666666672  0.6929043258865872
  0.5714285714285712  0.8333333333333335  0.6929043258865872
  0.8571428571428562  0.6666666666666672  0.6929043258865872
  0.7142857142857140  0.8333333333333335  0.6929043258865872
  0.8571428571428569  0.8333333333333335  0.6929043258865872
