Ge                                      
   1.00000000000000     
     3.9712279447991570    0.0000000000000000    0.0000000000000000
     1.9856139723995785    3.4391842844147358    0.0000000000000000
     0.0000000000000000    0.0000000000000000   33.6443407243256303
   Ge
    10
Direct
  0.3333333333333357  0.3333333333333357  0.2966865920421041
  0.6666666666666643  0.6666666666666643  0.3180383514192424
  0.6666666666666643  0.6666666666666643  0.3914316975421244
  0.0000000000000000  0.0000000000000000  0.4152585334065215
 -0.0000000000000000 -0.0000000000000000  0.4879044265444886
  0.3333333333333357  0.3333333333333357  0.5120955734555114
  0.3333333333333357  0.3333333333333357  0.5847414665934786
  0.6666666666666643  0.6666666666666643  0.6085683024578757
  0.6666666666666643  0.6666666666666643  0.6819616485807576
  0.0000000000000000  0.0000000000000000  0.7033134079578959
 
  0.00000000E+00  0.00000000E+00  0.00000000E+00
  0.00000000E+00  0.00000000E+00  0.00000000E+00
  0.00000000E+00  0.00000000E+00  0.00000000E+00
  0.00000000E+00  0.00000000E+00  0.00000000E+00
  0.00000000E+00  0.00000000E+00  0.00000000E+00
  0.00000000E+00  0.00000000E+00  0.00000000E+00
  0.00000000E+00  0.00000000E+00  0.00000000E+00
  0.00000000E+00  0.00000000E+00  0.00000000E+00
  0.00000000E+00  0.00000000E+00  0.00000000E+00
  0.00000000E+00  0.00000000E+00  0.00000000E+00
