&CONTROL
! .control.settings
calculation               = 'scf',
restart_mode              = 'from_scratch',
prefix                    = 'scf',
pseudo_dir                = '/shared/ESPRESSO/PSLIBRARY/1.0.0/pbe/PSEUDOPOTENTIALS/',

! .control.io
verbosity                 = 'low',
disk_io                   = 'low',
wf_collect                = .true.,
outdir                    = './tmp/',
/

&SYSTEM
! .system.structure
a                         = 1.0,
ibrav                     = 0,
nat                       = 2,
ntyp                      = 1,

! .system.ecut
ecutwfc                   = 30,
ecutrho                   = 120,

! .system.occupations
occupations               = 'smearing',
degauss                   = 0.007,
lda_plus_u                = .true.,
U_projection_type         = 'atomic',
smearing                  = 'gaussian',
Hubbard_U(1)              = 1.6,
/

&ELECTRONS
! .electrons
diagonalization           = 'david',
mixing_mode               = 'plain',
electron_maxstep          = 100,
mixing_beta               = 0.7,
conv_thr                  = 1e-06,
/

! .atomic_species
ATOMIC_SPECIES
   Ge  72.6300 Ge.pbe-n-kjpaw_psl.1.0.0.UPF

ATOMIC_POSITIONS  crystal 
 Ge     0.00000000000000     0.00000000000000     0.00000000000000   1   1   1
 Ge     0.25000000000000     0.25000000000000     0.25000000000000   1   1   1
CELL_PARAMETERS alat
    0.00000000000000     2.81828741500000     2.81828741500000
    2.81828741500000     0.00000000000000     2.81828741500000
    2.81828741500000     2.81828741500000     0.00000000000000

! .kpoints
K_POINTS automatic   ! .kpoints.type 
  12   12   12   0   0   0 ! .kpoints.mesh and .kpoints.smesh
